solution status: gap limit reached
objective value:                          34202.33699
y#9                                                 1 	(obj:5700)
y#26                                                1 	(obj:5700)
y#38                                                1 	(obj:5700)
y#39                                                1 	(obj:5700)
y#41                                                1 	(obj:5700)
y#43                                                1 	(obj:5700)
x#1#38                                              1 	(obj:0.03502)
x#2#38                                              1 	(obj:0.02771)
x#3#38                                              1 	(obj:0.017)
x#4#9                                               1 	(obj:0.00204)
x#5#41                                              1 	(obj:0.04182)
x#6#26                                              1 	(obj:0.03026)
x#7#43                                              1 	(obj:0.07208)
x#8#9                                               1 	(obj:0.02567)
x#9#38                                              1 	(obj:0.01955)
x#10#41                                             1 	(obj:0.02091)
x#11#43                                             1 	(obj:0.05168)
x#12#39                                             1 	(obj:0.03791)
x#13#39                                             1 	(obj:0.01088)
x#14#9                                              1 	(obj:0.02346)
x#15#43                                             1 	(obj:0.05236)
x#16#39                                             1 	(obj:0.0119)
x#17#26                                             1 	(obj:0.03723)
x#18#39                                             1 	(obj:0.04097)
x#19#9                                              1 	(obj:0.01887)
x#20#9                                              1 	(obj:0.00646)
x#21#39                                             1 	(obj:0.03043)
x#22#38                                             1 	(obj:0.07752)
x#23#39                                             1 	(obj:0.01598)
x#24#26                                             1 	(obj:0.02975)
x#25#26                                             1 	(obj:0.0136)
x#26#43                                             1 	(obj:0.03944)
x#27#43                                             1 	(obj:0.07038)
x#28#39                                             1 	(obj:0.03791)
x#29#41                                             1 	(obj:0.04114)
x#30#26                                             1 	(obj:0.00629)
x#31#41                                             1 	(obj:0.03468)
x#32#38                                             1 	(obj:0.05338)
x#33#9                                              1 	(obj:0.01921)
x#34#41                                             1 	(obj:0.02227)
x#35#26                                             1 	(obj:0.03468)
x#36#9                                              1 	(obj:0.03094)
x#37#43                                             1 	(obj:0.10115)
x#38#43                                             1 	(obj:0.08551)
x#39#43                                             1 	(obj:0.0867)
x#40#26                                             1 	(obj:0.03553)
x#41#9                                              1 	(obj:0.01054)
x#42#26                                             1 	(obj:0.02193)
x#43#9                                              1 	(obj:0.01292)
x#44#43                                             1 	(obj:0.09741)
x#45#41                                             1 	(obj:0.02635)
x#46#26                                             1 	(obj:0.01309)
x#47#41                                             1 	(obj:0.03026)
x#48#38                                             1 	(obj:0.02635)
x#49#41                                             1 	(obj:0.02635)
x#50#41                                             1 	(obj:0.04403)
x#51#39                                             1 	(obj:0.01972)
x#52#9                                              1 	(obj:0.01309)
x#53#38                                             1 	(obj:0.01411)
x#54#38                                             1 	(obj:0.05814)
x#55#41                                             1 	(obj:0.01224)
x#56#9                                              1 	(obj:0.05933)
x#57#41                                             1 	(obj:0.02499)
x#58#38                                             1 	(obj:0.00527)
x#59#38                                             1 	(obj:0.0051)
x#60#43                                             1 	(obj:0.04352)
x#61#41                                             1 	(obj:0.03349)
x#62#39                                             1 	(obj:0.04403)
x#63#43                                             1 	(obj:0.05389)
x#64#43                                             1 	(obj:0.05678)
x#65#39                                             1 	(obj:0.06494)
x#66#26                                             1 	(obj:0.00238)
x#67#9                                              1 	(obj:0.00425)
x#68#26                                             1 	(obj:0.00187)
x#69#39                                             1 	(obj:0.034)
x#70#38                                             1 	(obj:0.02635)
